c User generated cnf file
p cnf 15 16
-13 10 4 0 
14 3 -10 0 
9 14 -6 0 
-7 11 2 0 
-8 1 11 0 
-10 15 4 0 
1 10 -11 0 
4 -9 9 0 
-3 5 10 0 
-9 5 8 0 
-13 8 2 0 
15 -8 10 0 
1 12 -6 0 
-3 14 14 0 
-3 15 12 0 
9 9 -3 0 
